129
1000
38
127
87
4
120
104
89
40
39
149
242
140
155
127
88
16
190
136
229
29
109
138
106
185
151
220
206
40
3
1
1
41
203
15
213
32
248
14
126
151
161
15
212
231
120
125
206
59
199
45
108
105
197
232
158
84
101
22
33
71
113
91
127
157
243
204
218
20
136
22
233
235
231
208
160
31
187
182
25
168
244
225
115
61
137
57
12
152
214
48
145
154
64
241
97
187
28
119
63
114
15
154
62
35
92
1
201
35
199
18
204
10
100
42
75
2
188
101
225
15
25
191
245
38
148
40
189
38
8
